c This is QMaxSAT 2017 based on 14.07
c This is Glucose 3.0
c This is MiniSat 2.2.0
c WARNING: for repeatability, setting FPU to use double precision
c card = mrwto, comp = 0, pmodel = 0, narr = 3, mct = 14, verb = 0
cr firstCPXsol 0 0 0
c top = 80229
c |  Number of variables:    2616                                             |
c |  Number of clauses:      159425                                           |
c |  Weight of hard clauses: 80229                                            |
c |  Number of soft clauses: 546                                              |
c |  Number of unit soft clauses: 546                                         |
c |  Maximum Cardinality (by unit): 240684       (240684      )               |
c last restart ## conflicts  :  0 212 
o 2183 | cpuTime 0.0239 s
c Sum of weights = 80228
c A number of soft clauses remained = 182
c MRWTO encoding for Pseudo-Boolean Constraints
c sizeMax=2183
c No.0 Divisor=13	generated by pow1
c No.1 Divisor=13	generated by pow1
c No.2 Divisor=13	generated by pow1
c p0= 13	p1= 13	p2= 13	
c number of digits = 4
c linkingVar[0].size = 13, linkingVar[1].size = 13, linkingVar[2].size = 13, linkingVar[3].size = 1, 
c Pseudo-Boolean Constraints: 4885 variables and 51990 clauses
c Sum of weights = 80228
c A number of soft clauses remained = 182
c MRWTO encoding for Pseudo-Boolean Constraints
c sizeMax=2183
c No.0 Divisor=13	generated by pow1
c No.1 Divisor=13	generated by pow1
c No.2 Divisor=13	generated by pow1
c p0= 13	p1= 13	p2= 13	
c number of digits = 4
c linkingVar[0].size = 13, linkingVar[1].size = 13, linkingVar[2].size = 13, linkingVar[3].size = 1, 
c Pseudo-Boolean Constraints: 4885 variables and 51990 clauses
c Sum of weights = 80228
c A number of soft clauses remained = 182
c MRWTO encoding for Pseudo-Boolean Constraints
c sizeMax=2183
c No.0 Divisor=13	generated by pow1
c No.1 Divisor=13	generated by pow1
c No.2 Divisor=13	generated by pow1
c p0= 13	p1= 13	p2= 13	
c number of digits = 4
c linkingVar[0].size = 13, linkingVar[1].size = 13, linkingVar[2].size = 13, linkingVar[3].size = 1, 
c Pseudo-Boolean Constraints: 4885 variables and 51990 clauses
c last restart ## conflicts  :  25 1561 
o 2013 | cpuTime 0.059929 s
c last restart ## conflicts  :  5 3501 
o 1818 | cpuTime 0.062093 s
c last restart ## conflicts  :  19 995 
o 1811 | cpuTime 0.118352 s
c last restart ## conflicts  :  264 812 
o 1801 | cpuTime 0.409244 s
c last restart ## conflicts  :  183 910 
o 1779 | cpuTime 2.66769 s
c last restart ## conflicts  :  48 3249 
o 1770 | cpuTime 2.67211 s
c last restart ## conflicts  :  726 632 
o 1767 | cpuTime 4.35949 s
c last restart ## conflicts  :  1206 779 
o 1766 | cpuTime 5.09948 s
s OPTIMUM FOUND
cr positiVarArr: [ | 12@1(1->12) | 77@1(6->7) | 95@1(7->11) | 122@1(9->10) | 127@1(10->1) | 149@1(11->9) | 160@1(12->6) | 201@2(1->5) | 253@2(5->1) | 394@3(1->2) | 420@3(2->14) | 424@3(3->4) | 447@3(4->13) | 491@3(8->1) | 568@3(13->8) | 577@3(14->3) | ]
cr the 1-th chain: [ 1->12->6->7->11->9->10->1 ] (#non-depot=6) {#cumul.=7}
cr the 2-th chain: [ 1->5->1 ] (#non-depot=1) {#cumul.=8}
cr the 3-th chain: [ 1->2->14->3->4->13->8->1 ] (#non-depot=6) {#cumul.=14}
c Latest Answer = 0 by 9 loops
c restarts              : 677
c conflicts             : 172548         (13408 /sec)
c decisions             : 442290         (0.00 % random) (34370 /sec)
c propagations          : 92479128       (7186440 /sec)
c conflict literals     : 17605937       (37.57 % deleted)
c Memory used           : 99.00 MB
c CPU time              : 12.8686 s
